#défini les lots
set F := 0 1 2;
#défini la Machine : P,M,GF,Multi,C
set L := 0, 1, 2, 3, 4;
#Oblige des combinaisons
param lien:= 0 1 1 2 2 1;

param gain := 0 2400 1 1500 2 800;
param quantite := 0 800 1 500 2 200;

param cadence := 0 8 1 12 2 1 3 6 4 5; 
param nb_employe := 0 2 1 3 2 1 3 4 4 2;
param nb_operateur := 0 1 1 1 2 2 3 2 4 1;

param employe := 10;
param operateur := 8;
param temps_journee := 600;

param nettoyage: 0 1 2 :=
				0 0 0 0
				1 0 0 0
				2 30 30 0;

